c User generated cnf file
p cnf 7 28
2 -6 3 0 
2 4 -2 0 
-5 1 2 0 
-7 5 4 0 
-4 6 6 0 
4 6 -5 0 
2 6 -1 0 
-2 4 3 0 
-1 6 7 0 
-7 4 2 0 
-6 6 4 0 
-1 5 3 0 
2 -1 1 0 
-1 1 2 0 
-3 4 2 0 
7 2 -1 0 
6 -4 2 0 
-7 1 7 0 
4 6 -3 0 
-4 6 5 0 
5 7 -2 0 
7 -3 3 0 
5 6 -1 0 
-3 1 6 0 
1 5 -6 0 
2 -2 2 0 
5 7 -3 0 
3 6 -6 0 
